p edge 50 131
e 0 3
e 0 7
e 0 14
e 0 26
e 0 46
e 0 47
e 1 28
e 1 36
e 1 39
e 1 40
e 1 42
e 2 6
e 2 31
e 2 33
e 2 40
e 2 43
e 2 45
e 2 48
e 3 6
e 3 13
e 3 45
e 3 46
e 4 14
e 4 17
e 5 18
e 5 21
e 5 29
e 6 7
e 6 11
e 6 13
e 6 15
e 6 23
e 6 26
e 6 35
e 6 39
e 6 42
e 7 11
e 7 15
e 7 22
e 7 24
e 7 43
e 7 46
e 8 24
e 8 32
e 8 33
e 8 36
e 8 42
e 8 43
e 9 17
e 9 26
e 9 27
e 9 31
e 9 33
e 10 18
e 10 34
e 10 46
e 11 12
e 11 14
e 11 22
e 11 33
e 11 37
e 12 17
e 12 27
e 12 30
e 12 38
e 12 43
e 13 34
e 13 40
e 13 42
e 14 19
e 14 24
e 14 36
e 15 18
e 15 32
e 15 35
e 15 39
e 15 44
e 16 22
e 16 23
e 16 25
e 16 33
e 17 31
e 18 20
e 18 21
e 18 23
e 18 26
e 18 28
e 18 31
e 18 37
e 19 35
e 19 40
e 19 46
e 19 47
e 20 22
e 20 31
e 20 35
e 20 44
e 21 35
e 22 24
e 22 46
e 24 29
e 24 31
e 24 33
e 24 36
e 24 39
e 24 49
e 25 41
e 25 42
e 26 27
e 26 31
e 26 36
e 26 49
e 27 33
e 28 29
e 28 30
e 28 35
e 29 35
e 30 43
e 31 36
e 31 37
e 32 43
e 33 39
e 34 39
e 35 45
e 35 46
e 38 49
e 39 47
e 40 44
e 42 47
e 44 45
e 44 47
